Instance name : DPDPTWUR-R_one_clustering_DPDPTW-R_mitrovic-minic_Rnd6_10h_100_000_slice_5
Authors : 
Date : 
Reference 
Solution
Route 1 : 4 60 53 109 2 58 32 36 8 26 82 15 92 88 16 17 45 51 107 72 73 64 50 106 101 52 71 108 
Route 2 : 39 95 9 65 
Route 3 : 41 97 
Route 4 : 54 27 6 62 83 110 5 61 30 86 14 33 3 59 40 35 47 96 70 103 91 42 98 89 
Route 5 : 1 44 57 100 
Route 6 : 37 10 93 66 31 38 46 102 87 94 21 29 77 85 23 34 79 90 11 19 67 49 75 105 48 104 
Route 7 : 18 74 7 63 24 80 
Route 8 : 25 81 20 76 
Route 9 : 43 13 99 28 69 84 
Route 10 : 
Route 11 : 
Route 12 : 
Route 13 : 
Route 14 : 
Route 15 : 
Route 16 : 
Route 17 : 
Route 18 : 
Route 19 : 
Route 20 : 
Route 21 : 
